NAME : Unnamed.621.tour
COMMENT : Length = 621
COMMENT : Found by LKH [Keld Helsgaun] Sat Oct 04 21:50:02 2014
TYPE : TOUR
DIMENSION : 35
TOUR_SECTION
1
20
34
19
27
33
29
22
26
24
5
10
8
11
6
7
9
13
2
4
12
35
3
16
15
17
14
18
32
31
28
30
23
21
25
-1
EOF
